1
Time limit set to 60 seconds
Running CP solver
/home/omastto1/General-Optimization-Solver/src/solvers/mmrcpsp.py:42(stream:108:6): Warning: Cumulative expression 'pulse': height is zero, expression is zero everywhere.
                                                                                               VarCumulAtom_149 = pulse(task_0_mode_0, 0)
/home/omastto1/General-Optimization-Solver/src/solvers/mmrcpsp.py:42(stream:108:1254): Warning: Cumulative expression 'pulse': height is zero, expression is zero everywhere.
                                                                                                  VarCumulAtom_198 = pulse(task_17_mode_0, 0)
/home/omastto1/General-Optimization-Solver/src/solvers/mmrcpsp.py:42(stream:109:6): Warning: Cumulative expression 'pulse': height is zero, expression is zero everywhere.
                                                                                               VarCumulAtom_202 = pulse(task_0_mode_0, 0)
/home/omastto1/General-Optimization-Solver/src/solvers/mmrcpsp.py:42(stream:109:1253): Warning: Cumulative expression 'pulse': height is zero, expression is zero everywhere.
                                                                                                  VarCumulAtom_251 = pulse(task_17_mode_0, 0)
 ! --------------------------------------------------- CP Optimizer 20.1.0.0 --
 ! Minimization problem - 69 variables, 51 constraints
 ! TimeLimit            = 60
 ! Workers              = 14
 ! LogVerbosity         = Terse
 ! Initial process time : 0.01s (0.01s extraction + 0.00s propagation)
 !  . Log search space  : 162.5 (before), 162.5 (after)
 !  . Memory usage      : 754.6 kB (before), 754.6 kB (after)
 ! Using parallel search with 14 workers.
 ! ----------------------------------------------------------------------------
 !          Best Branches  Non-fixed    W       Branch decision
                        0         69                 -
 + New bound is 24
 ! Using iterative diving.
 ! Using temporal relaxation.
 *            35       44  0.34s        1      (gap is 31.43%)
 *            31      102  0.34s        1      (gap is 22.58%)
 *            29      156  0.34s        1      (gap is 17.24%)
 *            28      222  0.34s        1      (gap is 14.29%)
 *            27      280  0.34s        1      (gap is 11.11%)
 *            26      350  0.34s        1      (gap is 7.69%)
 *            24      563  0.34s        1      (gap is 0.00%)
 ! ----------------------------------------------------------------------------
 ! Search completed, 7 solutions found.
 ! Best objective         : 24 (optimal - effective tol. is 0)
 ! Best bound             : 24
 ! ----------------------------------------------------------------------------
 ! Number of branches     : 62089
 ! Number of fails        : 2396
 ! Total memory usage     : 9.7 MB (9.6 MB CP Optimizer + 0.1 MB Concert)
 ! Time spent in solve    : 0.37s (0.36s engine + 0.01s extraction)
 ! Search speed (br. / s) : 177397.1
 ! ----------------------------------------------------------------------------
task_0: (start=0, end=0, size=0, length=0)
Task 0 is scheduled in mode 0 from 0 to 0
task_1: (start=0, end=10, size=10, length=10)
Task 1 is scheduled in mode 2 from 0 to 10
task_2: (start=0, end=4, size=4, length=4)
Task 2 is scheduled in mode 0 from 0 to 4
task_3: (start=0, end=7, size=7, length=7)
Task 3 is scheduled in mode 2 from 0 to 7
task_4: (start=4, end=8, size=4, length=4)
Task 4 is scheduled in mode 1 from 4 to 8
task_5: (start=10, end=17, size=7, length=7)
Task 5 is scheduled in mode 2 from 10 to 17
task_6: (start=8, end=12, size=4, length=4)
Task 6 is scheduled in mode 1 from 8 to 12
task_7: (start=12, end=14, size=2, length=2)
Task 7 is scheduled in mode 1 from 12 to 14
task_8: (start=4, end=14, size=10, length=10)
Task 8 is scheduled in mode 2 from 4 to 14
task_9: (start=8, end=14, size=6, length=6)
Task 9 is scheduled in mode 2 from 8 to 14
task_10: (start=8, end=18, size=10, length=10)
Task 10 is scheduled in mode 2 from 8 to 18
task_11: (start=14, end=23, size=9, length=9)
Task 11 is scheduled in mode 1 from 14 to 23
task_12: (start=14, end=21, size=7, length=7)
Task 12 is scheduled in mode 2 from 14 to 21
task_13: (start=12, end=19, size=7, length=7)
Task 13 is scheduled in mode 2 from 12 to 19
task_14: (start=19, end=24, size=5, length=5)
Task 14 is scheduled in mode 1 from 19 to 24
task_15: (start=23, end=24, size=1, length=1)
Task 15 is scheduled in mode 0 from 23 to 24
task_16: (start=14, end=24, size=10, length=10)
Task 16 is scheduled in mode 2 from 14 to 24
task_17: (start=24, end=24, size=0, length=0)
Task 17 is scheduled in mode 0 from 24 to 24
Optimal solution found
Objective value: 24
Solution is optimal.
